c graph converted from Delauney Triangulation format
c weights on edges removed (lost)
x low 0.00
p edge 101 290
n 0 1.00
n 27 1.00
n 68 1.00
n 49 1.00
n 69 1.00
n 50 1.00
n 29 1.00
n 1 1.00
n 40 1.00
n 56 1.00
n 21 1.00
n 72 1.00
n 86 1.00
n 39 1.00
n 12 1.00
n 57 1.00
n 2 1.00
n 67 1.00
n 76 1.00
n 28 1.00
n 78 1.00
n 32 1.00
n 3 1.00
n 38 1.00
n 55 1.00
n 71 1.00
n 24 1.00
n 54 1.00
n 20 1.00
n 53 1.00
n 25 1.00
n 4 1.00
n 92 1.00
n 60 1.00
n 98 1.00
n 83 1.00
n 95 1.00
n 59 1.00
n 5 1.00
n 93 1.00
n 100 1.00
n 88 1.00
n 6 1.00
n 81 1.00
n 17 1.00
n 51 1.00
n 87 1.00
n 47 1.00
n 61 1.00
n 18 1.00
n 7 1.00
n 82 1.00
n 44 1.00
n 45 1.00
n 8 1.00
n 80 1.00
n 77 1.00
n 33 1.00
n 34 1.00
n 70 1.00
n 19 1.00
n 9 1.00
n 30 1.00
n 89 1.00
n 62 1.00
n 10 1.00
n 48 1.00
n 63 1.00
n 11 1.00
n 79 1.00
n 75 1.00
n 96 1.00
n 94 1.00
n 52 1.00
n 13 1.00
n 37 1.00
n 42 1.00
n 41 1.00
n 43 1.00
n 99 1.00
n 14 1.00
n 22 1.00
n 15 1.00
n 85 1.00
n 90 1.00
n 16 1.00
n 46 1.00
n 31 1.00
n 65 1.00
n 74 1.00
n 73 1.00
n 66 1.00
n 23 1.00
n 26 1.00
n 64 1.00
n 35 1.00
n 36 1.00
n 97 1.00
n 91 1.00
n 58 1.00
n 84 1.00
e 0 27
e 0 68
e 0 49
e 0 69
e 0 50
e 0 29
e 1 40
e 1 56
e 1 21
e 1 72
e 1 86
e 1 39
e 1 12
e 1 57
e 2 67
e 2 76
e 2 28
e 2 78
e 2 49
e 2 32
e 3 38
e 3 55
e 3 71
e 3 24
e 3 54
e 3 20
e 3 53
e 3 25
e 4 92
e 4 60
e 4 98
e 4 83
e 4 95
e 4 59
e 5 95
e 5 93
e 5 12
e 5 59
e 5 100
e 5 88
e 6 81
e 6 17
e 6 51
e 6 87
e 6 47
e 6 61
e 6 18
e 7 82
e 7 44
e 7 81
e 7 45
e 7 47
e 8 50
e 8 80
e 8 77
e 8 33
e 8 34
e 8 70
e 8 19
e 9 87
e 9 30
e 9 61
e 9 69
e 9 29
e 9 89
e 9 62
e 10 18
e 10 61
e 10 62
e 10 48
e 10 63
e 11 53
e 11 25
e 11 79
e 11 27
e 11 67
e 11 75
e 12 96
e 12 86
e 12 94
e 12 57
e 12 93
e 12 52
e 12 100
e 13 37
e 13 42
e 13 41
e 13 43
e 13 99
e 14 22
e 14 42
e 14 40
e 14 41
e 14 56
e 15 85
e 15 43
e 15 90
e 15 60
e 15 16
e 16 85
e 16 60
e 16 83
e 16 44
e 16 45
e 17 88
e 17 59
e 17 82
e 17 51
e 17 81
e 18 47
e 18 46
e 18 61
e 18 48
e 19 29
e 19 50
e 19 31
e 19 70
e 19 65
e 20 71
e 20 72
e 20 39
e 20 25
e 21 22
e 21 40
e 21 74
e 21 73
e 21 72
e 22 66
e 22 42
e 22 40
e 22 74
e 22 38
e 22 55
e 23 53
e 23 54
e 23 24
e 23 79
e 23 28
e 23 33
e 23 66
e 24 66
e 24 38
e 24 54
e 25 39
e 25 53
e 25 52
e 25 27
e 26 27
e 26 100
e 26 88
e 26 51
e 26 68
e 27 52
e 27 100
e 27 75
e 27 68
e 27 49
e 28 79
e 28 67
e 28 78
e 28 77
e 28 33
e 29 69
e 29 50
e 29 89
e 29 31
e 30 68
e 30 51
e 30 87
e 30 69
e 31 89
e 31 62
e 31 65
e 31 63
e 32 78
e 32 49
e 32 80
e 32 50
e 33 77
e 33 34
e 33 64
e 33 66
e 34 70
e 34 64
e 35 46
e 35 45
e 35 48
e 36 41
e 36 99
e 36 97
e 36 96
e 36 91
e 37 42
e 37 43
e 37 85
e 38 66
e 38 55
e 39 72
e 39 57
e 39 52
e 40 56
e 41 42
e 41 56
e 41 86
e 41 99
e 41 96
e 42 66
e 43 85
e 43 99
e 43 90
e 44 83
e 44 82
e 44 45
e 45 47
e 45 46
e 45 85
e 46 47
e 46 48
e 47 81
e 48 63
e 49 75
e 49 76
e 49 50
e 50 80
e 51 88
e 51 68
e 51 87
e 52 57
e 52 100
e 53 54
e 53 79
e 55 74
e 55 71
e 56 86
e 58 97
e 58 91
e 58 92
e 58 94
e 58 98
e 58 95
e 59 95
e 59 83
e 59 82
e 59 88
e 60 90
e 60 84
e 60 92
e 60 83
e 61 87
e 61 62
e 62 89
e 62 63
e 63 65
e 63 64
e 64 70
e 64 65
e 65 70
e 67 79
e 67 75
e 67 76
e 68 69
e 71 74
e 71 73
e 71 72
e 72 73
e 73 74
e 75 76
e 77 78
e 77 80
e 78 80
e 81 82
e 82 83
e 84 97
e 84 90
e 84 92
e 86 96
e 88 100
e 90 99
e 90 97
e 91 96
e 91 97
e 91 94
e 92 97
e 92 98
e 93 94
e 93 95
e 94 96
e 94 95
e 95 98
e 97 99
